CMPL model generation - running

CMPL version: 1.11.0
Authors: Thomas Schleiff, Mike Steglich
Distributed under the GPLv3 

create model instance ...
write model instance ...
CMPL model generation - finished

Solver - running


Welcome to IBM(R) ILOG(R) CPLEX(R) Interactive Optimizer 12.7.1.0
  with Simplex, Mixed Integer & Barrier Optimizers
5725-A06 5725-A29 5724-Y48 5724-Y49 5724-Y54 5724-Y55 5655-Y21
Copyright IBM Corp. 1988, 2017.  All Rights Reserved.

Type 'help' for a list of available commands.
Type 'help' followed by a command name for more
information on commands.

CPLEX> Specified objective sense: MINIMIZE
Selected objective  name:  line[1]
Selected RHS        name:  RHS
Selected bound      name:  BOUND
Problem '/tmp/cmpl.T24141.mps' read.
Read time = 0.06 sec. (10.12 ticks)
CPLEX> CPXPARAM_Read_APIEncoding                        "UTF-8"
Tried aggregator 3 times.
MIP Presolve eliminated 23981 rows and 37535 columns.
MIP Presolve modified 425 coefficients.
Aggregator did 779 substitutions.
Reduced MIP has 3162 rows, 4141 columns, and 12249 nonzeros.
Reduced MIP has 3931 binaries, 0 generals, 0 SOSs, and 0 indicators.
Presolve time = 0.06 sec. (50.25 ticks)
Found incumbent of value 970.497147 after 0.11 sec. (79.69 ticks)
Probing fixed 15 vars, tightened 0 bounds.
Probing time = 0.01 sec. (5.38 ticks)
Tried aggregator 1 time.
MIP Presolve eliminated 0 rows and 15 columns.
MIP Presolve modified 77 coefficients.
Reduced MIP has 3162 rows, 4126 columns, and 12219 nonzeros.
Reduced MIP has 4126 binaries, 0 generals, 0 SOSs, and 0 indicators.
Presolve time = 0.01 sec. (10.40 ticks)
Probing time = 0.01 sec. (2.85 ticks)
Clique table members: 7461.
MIP emphasis: balance optimality and feasibility.
MIP search method: dynamic search.
Parallel mode: none, using 1 thread.
Root relaxation solution time = 0.01 sec. (6.20 ticks)

        Nodes                                         Cuts/
   Node  Left     Objective  IInf  Best Integer    Best Bound    ItCnt     Gap

*     0+    0                          970.4971      -20.0514           102.07%
      0     0      222.2857     8      970.4971      222.2857      196   77.10%
*     0+    0                          227.7314      222.2857             2.39%
*     0+    0                          222.4686      222.2857             0.08%
      0     0      222.3771     1      222.4686      Cuts: 17      203    0.04%
*     0+    0                          222.4000      222.3771             0.01%
      0     0        cutoff            222.4000                    203    0.00%
Elapsed time = 0.19 sec. (132.07 ticks, tree = 0.01 MB, solutions = 4)

GUB cover cuts applied:  2
Clique cuts applied:  2
Cover cuts applied:  8
Gomory fractional cuts applied:  5

Root node processing (before b&c):
  Real time             =    0.20 sec. (134.13 ticks)
Sequential b&c:
  Real time             =    0.00 sec. (0.00 ticks)
                          ------------
Total (root+branch&cut) =    0.20 sec. (134.13 ticks)

Solution pool: 4 solutions saved.

MIP - Integer optimal solution:  Objective =  2.2240000100e+02
Solution time =    0.20 sec.  Iterations = 203  Nodes = 0
Deterministic time = 134.25 ticks  (684.90 ticks/sec)

CPLEX> Incumbent solution written to file '/tmp/cmpl.T24141.gsol'.
CPLEX> 
CMPL: Time used for model generation: 0 seconds
CMPL: Time used for solving the model: 1 seconds


Solution written to ASCII file: results/output_generated_conf_0.5/2015-11-02-5/fair-nonlinear.sol

Solver - finished
